c Output_time 26.03.2020 18:15:13_+0100 1585242913161943291
c ** Program information **
c program_name                          "QBRG_debug"
c version                               "0.3.20"
c date                                  "25.3.2020"
c gid_id                                "673970833836058123f633335630c185360d632e"
c author                                "Oliver Kullmann"
c url                                   "https://github.com/OKullmann/oklibrary/blob/master/Satisfiability/Transformers/Generators/Random/QBRG.cpp"
c ** Machine information **
c machine_name                          "chyna-Lenovo-G50-70"
c bogomips                              3791.08
c ** Compilation information **
c compiler_version                      "g++ 7.5.0"
c compilation_date                      "Mar_26_2020 11:16:30"
c compilation_options                   "--std=c++17 -pedantic -fmax-errors=5 -Wall -Wextra -g -D_GLIBCXX_DEBUG"
c NDEBUG                                0
c OPTIMIZE                              0
c ** Parameters **
c command-line                          "./QBRG_debug" "a40 e40 a40 40" "261*1,1|2-2,1|3-3,1|4-4,1" "" "1,t" ""
c output                                "QuBlRaGe_160_261_1585242913137744597.qdimacs"
c options                               "filtered,renamed"
c num_quantifier_blocks                 4
c  quantifier_blocks                    1:a1-40 2:e41-80 3:a81-120 4:e121-160
c num_clause-blocks                     1
c  clause-blocks                        261 * {1-40,1,1/2} | {41-80,1,1/2} | {81-120,1,1/2} | {121-160,1,1/2}
c num_e-seeds                           37+2=39
c  e-seeds                              1 0 1 0 5 160 2 40 0 40 1 40 0 40 1 261 4 1 1 1 1 2 2 2 1 1 2 3 3 1 1 2 4 4 1 1 2 1 1585242913137743964
p cnf 160 261
a 1 2 3 4 5 6 7 8 9 10 11 12 13 14 15 16 17 18 19 20 21 22 23 24 25 26 27 28 29 30 31 32 33 34 35 36 37 38 39 40 0
e 41 42 43 44 45 46 47 48 49 50 51 52 53 54 55 56 57 58 59 60 61 62 63 64 65 66 67 68 69 70 71 72 73 74 75 76 77 78 79 80 0
a 81 82 83 84 85 86 87 88 89 90 91 92 93 94 95 96 97 98 99 100 101 102 103 104 105 106 107 108 109 110 111 112 113 114 115 116 117 118 119 120 0
e 121 122 123 124 125 126 127 128 129 130 131 132 133 134 135 136 137 138 139 140 141 142 143 144 145 146 147 148 149 150 151 152 153 154 155 156 157 158 159 160 0
-30 48 -110 -121 0
-6 -75 93 121 0
10 -43 -118 121 0
-37 76 82 -122 0
-36 53 -114 -122 0
4 52 -97 122 0
-33 -41 102 122 0
31 41 110 122 0
6 -63 110 122 0
-8 66 95 -123 0
-3 46 92 123 0
35 -48 -110 123 0
-4 -41 93 -124 0
-29 52 -86 124 0
39 73 -87 124 0
36 79 -111 124 0
33 -43 111 124 0
-9 42 116 124 0
17 -74 88 -125 0
36 -79 103 -125 0
-25 46 106 -125 0
-17 -54 107 -125 0
-5 -54 -115 -125 0
-27 63 -116 -125 0
-17 -69 -104 125 0
-8 -56 -105 125 0
-18 -62 89 -126 0
-39 -76 -104 -126 0
-14 47 -111 -126 0
28 -74 93 126 0
-14 75 110 126 0
39 51 -91 -127 0
14 -59 116 -127 0
37 53 116 127 0
-1 70 -112 -128 0
39 60 85 128 0
-38 46 -96 128 0
28 68 98 128 0
8 64 99 128 0
22 -65 87 -129 0
7 62 100 -129 0
16 -64 106 -129 0
18 42 -110 -129 0
8 -55 -119 -129 0
-27 62 -120 -129 0
-9 41 -85 129 0
-23 -60 100 129 0
25 -45 103 129 0
16 -65 82 -130 0
-12 54 89 -130 0
-1 -76 -107 -130 0
29 -45 108 -130 0
-3 71 102 130 0
6 48 -112 130 0
5 51 -111 -131 0
-32 42 112 -131 0
7 -67 84 131 0
9 61 -91 131 0
-39 -63 93 131 0
-8 66 -94 131 0
22 48 106 131 0
-2 -51 -109 131 0
-1 -66 -105 -132 0
23 -45 81 132 0
14 59 -89 132 0
25 -76 93 132 0
-21 -62 -94 132 0
21 54 -97 133 0
-8 66 -82 -134 0
16 -47 -91 -134 0
-32 80 96 -134 0
39 -50 103 134 0
-28 44 111 134 0
14 -72 111 134 0
-10 -59 -112 134 0
30 76 -114 134 0
18 -57 98 -135 0
38 -53 101 -135 0
-29 -78 93 135 0
14 65 102 135 0
-9 72 -113 135 0
-25 41 86 -136 0
-31 72 90 -136 0
22 -47 115 -136 0
8 77 119 -136 0
-39 -55 88 136 0
-26 60 116 136 0
-8 -59 -106 -137 0
-3 -80 118 -137 0
-21 43 -119 -137 0
-24 66 -119 -137 0
13 -55 -104 137 0
-36 -62 -107 137 0
15 -80 109 137 0
1 -42 110 137 0
-1 77 118 137 0
4 77 110 -138 0
5 -58 112 -138 0
32 80 116 -138 0
-33 77 -85 138 0
-32 -57 -87 138 0
-20 42 118 138 0
24 69 98 -139 0
25 -46 -83 139 0
-39 59 89 139 0
4 -62 -84 -140 0
19 -70 92 -140 0
-30 -50 -99 -140 0
11 61 90 140 0
4 -72 -91 140 0
32 75 -95 140 0
-5 -45 -96 140 0
36 56 -98 -141 0
-39 -42 104 -141 0
40 62 104 141 0
18 -63 -111 141 0
-21 57 -87 -142 0
7 65 -88 -142 0
-37 -48 88 -142 0
-15 -68 -91 -142 0
-22 -73 106 -142 0
-9 65 -101 142 0
20 -43 101 142 0
-25 43 109 142 0
-30 63 99 -143 0
29 -50 -102 -143 0
-15 46 -104 -143 0
20 52 -88 143 0
-4 49 97 143 0
-22 -41 104 143 0
2 -67 -109 143 0
-31 48 119 143 0
26 46 84 -144 0
3 57 111 -144 0
20 -80 -114 -144 0
-40 -77 117 -144 0
3 -54 90 144 0
6 58 96 144 0
35 76 103 144 0
-37 75 -106 144 0
1 66 -116 -145 0
-20 49 -85 145 0
38 -67 -101 145 0
17 50 88 -146 0
5 68 104 -146 0
-30 -70 112 -146 0
-35 -67 113 -146 0
-23 -54 -91 146 0
-2 -46 -101 146 0
13 52 -118 146 0
-21 53 82 -147 0
-26 -80 -89 -147 0
19 -50 -92 -147 0
16 -42 100 -147 0
1 71 109 -147 0
-2 75 84 147 0
-13 62 89 147 0
-1 56 -104 147 0
-38 -76 104 147 0
-37 -57 105 147 0
-22 -72 115 147 0
-36 45 -89 -148 0
-5 63 93 -148 0
-30 77 95 -148 0
-29 -57 -103 -148 0
6 75 106 -148 0
19 -77 -84 148 0
27 74 -88 -149 0
29 56 88 -149 0
29 76 88 -149 0
-35 46 -93 -149 0
-9 -70 94 -149 0
-30 66 105 -149 0
-37 -59 -107 -149 0
-7 -43 113 -149 0
13 60 -117 -149 0
9 66 98 149 0
26 61 -99 149 0
-5 54 -89 -150 0
31 76 -94 -150 0
-21 43 94 -150 0
31 -79 -98 -150 0
31 -62 -120 -150 0
15 50 89 150 0
-36 -57 97 150 0
16 69 116 150 0
14 79 87 -151 0
3 -53 -88 -151 0
25 -41 99 -151 0
18 -66 102 -151 0
-10 -53 -109 -151 0
-32 60 -113 -151 0
23 -72 90 151 0
-16 -60 -88 -152 0
15 56 -105 -152 0
14 -78 -88 152 0
-14 -43 92 152 0
-34 -69 97 152 0
-38 45 -118 152 0
-16 -77 -82 -153 0
24 -79 -87 -153 0
39 78 -104 -153 0
-6 -66 -115 -153 0
6 -65 88 153 0
-11 62 92 153 0
-9 -73 97 153 0
16 -51 -105 153 0
10 -45 -89 -154 0
-4 -59 95 -154 0
-25 57 -104 -154 0
1 65 108 -154 0
-34 76 -116 -154 0
17 51 120 -154 0
8 -53 91 154 0
17 -64 -93 154 0
-36 -56 102 154 0
-13 -64 -95 -155 0
-35 46 -107 -155 0
-38 50 119 -155 0
22 -54 -87 155 0
29 65 -91 155 0
31 41 104 -156 0
-39 71 -106 -156 0
26 -58 113 -156 0
-19 -61 85 156 0
-1 -58 -93 156 0
9 50 99 156 0
14 -62 -107 156 0
-22 49 -86 -157 0
-11 60 -91 -157 0
-25 -70 92 -157 0
2 72 92 -157 0
-34 -51 -103 -157 0
-3 -75 -94 157 0
26 51 94 157 0
2 71 -105 157 0
21 -48 -111 157 0
14 -66 -84 -158 0
-11 -45 99 -158 0
22 61 99 -158 0
26 79 113 -158 0
-24 52 -83 158 0
35 -65 -89 158 0
-3 74 -89 158 0
32 59 98 158 0
26 41 -101 -159 0
-39 -55 111 -159 0
20 -61 111 -159 0
-31 -45 84 159 0
-35 -70 -98 159 0
-38 -70 99 159 0
-15 -70 -105 159 0
-4 63 108 159 0
38 -48 109 159 0
21 62 117 159 0
-17 50 88 -160 0
26 -52 114 -160 0
33 -46 -84 160 0
24 -68 -84 160 0
-21 41 -87 160 0
19 66 -114 160 0
